c CNF file corresponding to a (partial) station packing problem.
p cnf 6448 198
1 2 3 4 5 6 7 8 9 10 11 12 13 14 0
-1 -2 0
-1 -3 0
-1 -4 0
-1 -5 0
-1 -6 0
-1 -7 0
-1 -8 0
-1 -9 0
-1 -10 0
-1 -11 0
-1 -12 0
-1 -13 0
-1 -14 0
-2 -3 0
-2 -4 0
-2 -5 0
-2 -6 0
-2 -7 0
-2 -8 0
-2 -9 0
-2 -10 0
-2 -11 0
-2 -12 0
-2 -13 0
-2 -14 0
-3 -4 0
-3 -5 0
-3 -6 0
-3 -7 0
-3 -8 0
-3 -9 0
-3 -10 0
-3 -11 0
-3 -12 0
-3 -13 0
-3 -14 0
-4 -5 0
-4 -6 0
-4 -7 0
-4 -8 0
-4 -9 0
-4 -10 0
-4 -11 0
-4 -12 0
-4 -13 0
-4 -14 0
-5 -6 0
-5 -7 0
-5 -8 0
-5 -9 0
-5 -10 0
-5 -11 0
-5 -12 0
-5 -13 0
-5 -14 0
-6 -7 0
-6 -8 0
-6 -9 0
-6 -10 0
-6 -11 0
-6 -12 0
-6 -13 0
-6 -14 0
-7 -8 0
-7 -9 0
-7 -10 0
-7 -11 0
-7 -12 0
-7 -13 0
-7 -14 0
-8 -9 0
-8 -10 0
-8 -11 0
-8 -12 0
-8 -13 0
-8 -14 0
-9 -10 0
-9 -11 0
-9 -12 0
-9 -13 0
-9 -14 0
-10 -11 0
-10 -12 0
-10 -13 0
-10 -14 0
-11 -12 0
-11 -13 0
-11 -14 0
-12 -13 0
-12 -14 0
-13 -14 0
6434 6435 6436 6437 6438 6439 6440 6441 6442 6443 6444 6445 6446 6447 6448 0
-6434 -6435 0
-6434 -6436 0
-6434 -6437 0
-6434 -6438 0
-6434 -6439 0
-6434 -6440 0
-6434 -6441 0
-6434 -6442 0
-6434 -6443 0
-6434 -6444 0
-6434 -6445 0
-6434 -6446 0
-6434 -6447 0
-6434 -6448 0
-6435 -6436 0
-6435 -6437 0
-6435 -6438 0
-6435 -6439 0
-6435 -6440 0
-6435 -6441 0
-6435 -6442 0
-6435 -6443 0
-6435 -6444 0
-6435 -6445 0
-6435 -6446 0
-6435 -6447 0
-6435 -6448 0
-6436 -6437 0
-6436 -6438 0
-6436 -6439 0
-6436 -6440 0
-6436 -6441 0
-6436 -6442 0
-6436 -6443 0
-6436 -6444 0
-6436 -6445 0
-6436 -6446 0
-6436 -6447 0
-6436 -6448 0
-6437 -6438 0
-6437 -6439 0
-6437 -6440 0
-6437 -6441 0
-6437 -6442 0
-6437 -6443 0
-6437 -6444 0
-6437 -6445 0
-6437 -6446 0
-6437 -6447 0
-6437 -6448 0
-6438 -6439 0
-6438 -6440 0
-6438 -6441 0
-6438 -6442 0
-6438 -6443 0
-6438 -6444 0
-6438 -6445 0
-6438 -6446 0
-6438 -6447 0
-6438 -6448 0
-6439 -6440 0
-6439 -6441 0
-6439 -6442 0
-6439 -6443 0
-6439 -6444 0
-6439 -6445 0
-6439 -6446 0
-6439 -6447 0
-6439 -6448 0
-6440 -6441 0
-6440 -6442 0
-6440 -6443 0
-6440 -6444 0
-6440 -6445 0
-6440 -6446 0
-6440 -6447 0
-6440 -6448 0
-6441 -6442 0
-6441 -6443 0
-6441 -6444 0
-6441 -6445 0
-6441 -6446 0
-6441 -6447 0
-6441 -6448 0
-6442 -6443 0
-6442 -6444 0
-6442 -6445 0
-6442 -6446 0
-6442 -6447 0
-6442 -6448 0
-6443 -6444 0
-6443 -6445 0
-6443 -6446 0
-6443 -6447 0
-6443 -6448 0
-6444 -6445 0
-6444 -6446 0
-6444 -6447 0
-6444 -6448 0
-6445 -6446 0
-6445 -6447 0
-6445 -6448 0
-6446 -6447 0
-6446 -6448 0
-6447 -6448 0
